row=6;
column=6;
left=[0, 1, 0, 0, 0, 0];
right=[0, 2, 3, 0, 0, 0];
top=[0, 2, 0, 4, 0, 0];
bottom=[4, 0, 0, 0, 0, 0];
Board=[|0,0,0,3,0,0|0,0,4,0,0,0|0,6,0,4,0,2|0,0,1,0,0,6|1,0,5,0,0,3|0,5,0,1,0,0|]